data;
set V := 1 2 3 4 5 6 7 8 9 10 11 12 13 14 15 16 17 18 19 20 21 22 23 24 25 26 27 28 29 30 31 32 33 34 35 36 37 38 39 40 41 42 43 44 45 46 47 48 49 50 51 52 53 54 55 56 57 58 59 60 61 62 63 64 65 66 67 68 69 70 71 72 73 74 75 76 77 78 79 80 81 82 83 84 85 86 87 88 89 90 91 92 93 94 95 96 97 98 99 100 101 102 103 104 105 106 107 108 109 110 111 112 113 114;
set E :=
	(1,2)
	(2,1)
	(1,4)
	(4,1)
	(1,20)
	(20,1)
	(1,22)
	(22,1)
	(2,3)
	(3,2)
	(2,19)
	(19,2)
	(2,21)
	(21,2)
	(3,6)
	(6,3)
	(3,14)
	(14,3)
	(3,20)
	(20,3)
	(3,24)
	(24,3)
	(3,32)
	(32,3)
	(4,5)
	(5,4)
	(4,14)
	(14,4)
	(4,19)
	(19,4)
	(4,23)
	(23,4)
	(4,32)
	(32,4)
	(5,8)
	(8,5)
	(5,15)
	(15,5)
	(5,22)
	(22,5)
	(5,26)
	(26,5)
	(5,33)
	(33,5)
	(6,7)
	(7,6)
	(6,15)
	(15,6)
	(6,21)
	(21,6)
	(6,25)
	(25,6)
	(6,33)
	(33,6)
	(7,10)
	(10,7)
	(7,16)
	(16,7)
	(7,24)
	(24,7)
	(7,28)
	(28,7)
	(7,34)
	(34,7)
	(8,9)
	(9,8)
	(8,16)
	(16,8)
	(8,23)
	(23,8)
	(8,27)
	(27,8)
	(8,34)
	(34,8)
	(9,12)
	(12,9)
	(9,17)
	(17,9)
	(9,26)
	(26,9)
	(9,30)
	(30,9)
	(9,35)
	(35,9)
	(10,11)
	(11,10)
	(10,17)
	(17,10)
	(10,25)
	(25,10)
	(10,29)
	(29,10)
	(10,35)
	(35,10)
	(11,13)
	(13,11)
	(11,18)
	(18,11)
	(11,28)
	(28,11)
	(11,31)
	(31,11)
	(11,36)
	(36,11)
	(12,13)
	(13,12)
	(12,18)
	(18,12)
	(12,27)
	(27,12)
	(12,31)
	(31,12)
	(12,36)
	(36,12)
	(13,14)
	(14,13)
	(13,15)
	(15,13)
	(13,16)
	(16,13)
	(13,17)
	(17,13)
	(13,18)
	(18,13)
	(13,29)
	(29,13)
	(13,30)
	(30,13)
	(13,32)
	(32,13)
	(13,33)
	(33,13)
	(13,34)
	(34,13)
	(13,35)
	(35,13)
	(13,36)
	(36,13)
	(14,15)
	(15,14)
	(14,16)
	(16,14)
	(14,17)
	(17,14)
	(14,18)
	(18,14)
	(14,21)
	(21,14)
	(14,22)
	(22,14)
	(14,31)
	(31,14)
	(14,33)
	(33,14)
	(14,34)
	(34,14)
	(14,35)
	(35,14)
	(14,36)
	(36,14)
	(15,16)
	(16,15)
	(15,17)
	(17,15)
	(15,18)
	(18,15)
	(15,23)
	(23,15)
	(15,24)
	(24,15)
	(15,31)
	(31,15)
	(15,32)
	(32,15)
	(15,34)
	(34,15)
	(15,35)
	(35,15)
	(15,36)
	(36,15)
	(16,17)
	(17,16)
	(16,18)
	(18,16)
	(16,25)
	(25,16)
	(16,26)
	(26,16)
	(16,31)
	(31,16)
	(16,32)
	(32,16)
	(16,33)
	(33,16)
	(16,35)
	(35,16)
	(16,36)
	(36,16)
	(17,18)
	(18,17)
	(17,27)
	(27,17)
	(17,28)
	(28,17)
	(17,31)
	(31,17)
	(17,32)
	(32,17)
	(17,33)
	(33,17)
	(17,34)
	(34,17)
	(17,36)
	(36,17)
	(18,29)
	(29,18)
	(18,30)
	(30,18)
	(18,31)
	(31,18)
	(18,32)
	(32,18)
	(18,33)
	(33,18)
	(18,34)
	(34,18)
	(18,35)
	(35,18)
	(19,38)
	(38,19)
	(19,40)
	(40,19)
	(19,110)
	(110,19)
	(20,37)
	(37,20)
	(20,39)
	(39,20)
	(20,110)
	(110,20)
	(21,38)
	(38,21)
	(21,42)
	(42,21)
	(21,50)
	(50,21)
	(21,110)
	(110,21)
	(22,37)
	(37,22)
	(22,41)
	(41,22)
	(22,50)
	(50,22)
	(22,110)
	(110,22)
	(23,40)
	(40,23)
	(23,44)
	(44,23)
	(23,51)
	(51,23)
	(23,110)
	(110,23)
	(24,39)
	(39,24)
	(24,43)
	(43,24)
	(24,51)
	(51,24)
	(24,110)
	(110,24)
	(25,42)
	(42,25)
	(25,46)
	(46,25)
	(25,52)
	(52,25)
	(25,110)
	(110,25)
	(26,41)
	(41,26)
	(26,45)
	(45,26)
	(26,52)
	(52,26)
	(26,110)
	(110,26)
	(27,44)
	(44,27)
	(27,48)
	(48,27)
	(27,53)
	(53,27)
	(27,110)
	(110,27)
	(28,43)
	(43,28)
	(28,47)
	(47,28)
	(28,53)
	(53,28)
	(28,110)
	(110,28)
	(29,46)
	(46,29)
	(29,49)
	(49,29)
	(29,54)
	(54,29)
	(29,110)
	(110,29)
	(30,45)
	(45,30)
	(30,49)
	(49,30)
	(30,54)
	(54,30)
	(30,110)
	(110,30)
	(31,47)
	(47,31)
	(31,48)
	(48,31)
	(31,50)
	(50,31)
	(31,51)
	(51,31)
	(31,52)
	(52,31)
	(31,53)
	(53,31)
	(31,54)
	(54,31)
	(31,110)
	(110,31)
	(32,39)
	(39,32)
	(32,40)
	(40,32)
	(32,49)
	(49,32)
	(32,51)
	(51,32)
	(32,52)
	(52,32)
	(32,53)
	(53,32)
	(32,54)
	(54,32)
	(32,110)
	(110,32)
	(33,41)
	(41,33)
	(33,42)
	(42,33)
	(33,49)
	(49,33)
	(33,50)
	(50,33)
	(33,52)
	(52,33)
	(33,53)
	(53,33)
	(33,54)
	(54,33)
	(33,110)
	(110,33)
	(34,43)
	(43,34)
	(34,44)
	(44,34)
	(34,49)
	(49,34)
	(34,50)
	(50,34)
	(34,51)
	(51,34)
	(34,53)
	(53,34)
	(34,54)
	(54,34)
	(34,110)
	(110,34)
	(35,45)
	(45,35)
	(35,46)
	(46,35)
	(35,49)
	(49,35)
	(35,50)
	(50,35)
	(35,51)
	(51,35)
	(35,52)
	(52,35)
	(35,54)
	(54,35)
	(35,110)
	(110,35)
	(36,47)
	(47,36)
	(36,48)
	(48,36)
	(36,49)
	(49,36)
	(36,50)
	(50,36)
	(36,51)
	(51,36)
	(36,52)
	(52,36)
	(36,53)
	(53,36)
	(36,110)
	(110,36)
	(37,56)
	(56,37)
	(37,58)
	(58,37)
	(37,111)
	(111,37)
	(38,55)
	(55,38)
	(38,57)
	(57,38)
	(38,111)
	(111,38)
	(39,56)
	(56,39)
	(39,60)
	(60,39)
	(39,68)
	(68,39)
	(39,111)
	(111,39)
	(40,55)
	(55,40)
	(40,59)
	(59,40)
	(40,68)
	(68,40)
	(40,111)
	(111,40)
	(41,58)
	(58,41)
	(41,62)
	(62,41)
	(41,69)
	(69,41)
	(41,111)
	(111,41)
	(42,57)
	(57,42)
	(42,61)
	(61,42)
	(42,69)
	(69,42)
	(42,111)
	(111,42)
	(43,60)
	(60,43)
	(43,64)
	(64,43)
	(43,70)
	(70,43)
	(43,111)
	(111,43)
	(44,59)
	(59,44)
	(44,63)
	(63,44)
	(44,70)
	(70,44)
	(44,111)
	(111,44)
	(45,62)
	(62,45)
	(45,66)
	(66,45)
	(45,71)
	(71,45)
	(45,111)
	(111,45)
	(46,61)
	(61,46)
	(46,65)
	(65,46)
	(46,71)
	(71,46)
	(46,111)
	(111,46)
	(47,64)
	(64,47)
	(47,67)
	(67,47)
	(47,72)
	(72,47)
	(47,111)
	(111,47)
	(48,63)
	(63,48)
	(48,67)
	(67,48)
	(48,72)
	(72,48)
	(48,111)
	(111,48)
	(49,65)
	(65,49)
	(49,66)
	(66,49)
	(49,68)
	(68,49)
	(49,69)
	(69,49)
	(49,70)
	(70,49)
	(49,71)
	(71,49)
	(49,72)
	(72,49)
	(49,111)
	(111,49)
	(50,57)
	(57,50)
	(50,58)
	(58,50)
	(50,67)
	(67,50)
	(50,69)
	(69,50)
	(50,70)
	(70,50)
	(50,71)
	(71,50)
	(50,72)
	(72,50)
	(50,111)
	(111,50)
	(51,59)
	(59,51)
	(51,60)
	(60,51)
	(51,67)
	(67,51)
	(51,68)
	(68,51)
	(51,70)
	(70,51)
	(51,71)
	(71,51)
	(51,72)
	(72,51)
	(51,111)
	(111,51)
	(52,61)
	(61,52)
	(52,62)
	(62,52)
	(52,67)
	(67,52)
	(52,68)
	(68,52)
	(52,69)
	(69,52)
	(52,71)
	(71,52)
	(52,72)
	(72,52)
	(52,111)
	(111,52)
	(53,63)
	(63,53)
	(53,64)
	(64,53)
	(53,67)
	(67,53)
	(53,68)
	(68,53)
	(53,69)
	(69,53)
	(53,70)
	(70,53)
	(53,72)
	(72,53)
	(53,111)
	(111,53)
	(54,65)
	(65,54)
	(54,66)
	(66,54)
	(54,67)
	(67,54)
	(54,68)
	(68,54)
	(54,69)
	(69,54)
	(54,70)
	(70,54)
	(54,71)
	(71,54)
	(54,111)
	(111,54)
	(55,74)
	(74,55)
	(55,76)
	(76,55)
	(55,112)
	(112,55)
	(56,73)
	(73,56)
	(56,75)
	(75,56)
	(56,112)
	(112,56)
	(57,74)
	(74,57)
	(57,78)
	(78,57)
	(57,86)
	(86,57)
	(57,112)
	(112,57)
	(58,73)
	(73,58)
	(58,77)
	(77,58)
	(58,86)
	(86,58)
	(58,112)
	(112,58)
	(59,76)
	(76,59)
	(59,80)
	(80,59)
	(59,87)
	(87,59)
	(59,112)
	(112,59)
	(60,75)
	(75,60)
	(60,79)
	(79,60)
	(60,87)
	(87,60)
	(60,112)
	(112,60)
	(61,78)
	(78,61)
	(61,82)
	(82,61)
	(61,88)
	(88,61)
	(61,112)
	(112,61)
	(62,77)
	(77,62)
	(62,81)
	(81,62)
	(62,88)
	(88,62)
	(62,112)
	(112,62)
	(63,80)
	(80,63)
	(63,84)
	(84,63)
	(63,89)
	(89,63)
	(63,112)
	(112,63)
	(64,79)
	(79,64)
	(64,83)
	(83,64)
	(64,89)
	(89,64)
	(64,112)
	(112,64)
	(65,82)
	(82,65)
	(65,85)
	(85,65)
	(65,90)
	(90,65)
	(65,112)
	(112,65)
	(66,81)
	(81,66)
	(66,85)
	(85,66)
	(66,90)
	(90,66)
	(66,112)
	(112,66)
	(67,83)
	(83,67)
	(67,84)
	(84,67)
	(67,86)
	(86,67)
	(67,87)
	(87,67)
	(67,88)
	(88,67)
	(67,89)
	(89,67)
	(67,90)
	(90,67)
	(67,112)
	(112,67)
	(68,75)
	(75,68)
	(68,76)
	(76,68)
	(68,85)
	(85,68)
	(68,87)
	(87,68)
	(68,88)
	(88,68)
	(68,89)
	(89,68)
	(68,90)
	(90,68)
	(68,112)
	(112,68)
	(69,77)
	(77,69)
	(69,78)
	(78,69)
	(69,85)
	(85,69)
	(69,86)
	(86,69)
	(69,88)
	(88,69)
	(69,89)
	(89,69)
	(69,90)
	(90,69)
	(69,112)
	(112,69)
	(70,79)
	(79,70)
	(70,80)
	(80,70)
	(70,85)
	(85,70)
	(70,86)
	(86,70)
	(70,87)
	(87,70)
	(70,89)
	(89,70)
	(70,90)
	(90,70)
	(70,112)
	(112,70)
	(71,81)
	(81,71)
	(71,82)
	(82,71)
	(71,85)
	(85,71)
	(71,86)
	(86,71)
	(71,87)
	(87,71)
	(71,88)
	(88,71)
	(71,90)
	(90,71)
	(71,112)
	(112,71)
	(72,83)
	(83,72)
	(72,84)
	(84,72)
	(72,85)
	(85,72)
	(72,86)
	(86,72)
	(72,87)
	(87,72)
	(72,88)
	(88,72)
	(72,89)
	(89,72)
	(72,112)
	(112,72)
	(73,92)
	(92,73)
	(73,94)
	(94,73)
	(73,113)
	(113,73)
	(74,91)
	(91,74)
	(74,93)
	(93,74)
	(74,113)
	(113,74)
	(75,92)
	(92,75)
	(75,96)
	(96,75)
	(75,104)
	(104,75)
	(75,113)
	(113,75)
	(76,91)
	(91,76)
	(76,95)
	(95,76)
	(76,104)
	(104,76)
	(76,113)
	(113,76)
	(77,94)
	(94,77)
	(77,98)
	(98,77)
	(77,105)
	(105,77)
	(77,113)
	(113,77)
	(78,93)
	(93,78)
	(78,97)
	(97,78)
	(78,105)
	(105,78)
	(78,113)
	(113,78)
	(79,96)
	(96,79)
	(79,100)
	(100,79)
	(79,106)
	(106,79)
	(79,113)
	(113,79)
	(80,95)
	(95,80)
	(80,99)
	(99,80)
	(80,106)
	(106,80)
	(80,113)
	(113,80)
	(81,98)
	(98,81)
	(81,102)
	(102,81)
	(81,107)
	(107,81)
	(81,113)
	(113,81)
	(82,97)
	(97,82)
	(82,101)
	(101,82)
	(82,107)
	(107,82)
	(82,113)
	(113,82)
	(83,100)
	(100,83)
	(83,103)
	(103,83)
	(83,108)
	(108,83)
	(83,113)
	(113,83)
	(84,99)
	(99,84)
	(84,103)
	(103,84)
	(84,108)
	(108,84)
	(84,113)
	(113,84)
	(85,101)
	(101,85)
	(85,102)
	(102,85)
	(85,104)
	(104,85)
	(85,105)
	(105,85)
	(85,106)
	(106,85)
	(85,107)
	(107,85)
	(85,108)
	(108,85)
	(85,113)
	(113,85)
	(86,93)
	(93,86)
	(86,94)
	(94,86)
	(86,103)
	(103,86)
	(86,105)
	(105,86)
	(86,106)
	(106,86)
	(86,107)
	(107,86)
	(86,108)
	(108,86)
	(86,113)
	(113,86)
	(87,95)
	(95,87)
	(87,96)
	(96,87)
	(87,103)
	(103,87)
	(87,104)
	(104,87)
	(87,106)
	(106,87)
	(87,107)
	(107,87)
	(87,108)
	(108,87)
	(87,113)
	(113,87)
	(88,97)
	(97,88)
	(88,98)
	(98,88)
	(88,103)
	(103,88)
	(88,104)
	(104,88)
	(88,105)
	(105,88)
	(88,107)
	(107,88)
	(88,108)
	(108,88)
	(88,113)
	(113,88)
	(89,99)
	(99,89)
	(89,100)
	(100,89)
	(89,103)
	(103,89)
	(89,104)
	(104,89)
	(89,105)
	(105,89)
	(89,106)
	(106,89)
	(89,108)
	(108,89)
	(89,113)
	(113,89)
	(90,101)
	(101,90)
	(90,102)
	(102,90)
	(90,103)
	(103,90)
	(90,104)
	(104,90)
	(90,105)
	(105,90)
	(90,106)
	(106,90)
	(90,107)
	(107,90)
	(90,113)
	(113,90)
	(91,109)
	(109,91)
	(91,114)
	(114,91)
	(92,109)
	(109,92)
	(92,114)
	(114,92)
	(93,109)
	(109,93)
	(93,114)
	(114,93)
	(94,109)
	(109,94)
	(94,114)
	(114,94)
	(95,109)
	(109,95)
	(95,114)
	(114,95)
	(96,109)
	(109,96)
	(96,114)
	(114,96)
	(97,109)
	(109,97)
	(97,114)
	(114,97)
	(98,109)
	(109,98)
	(98,114)
	(114,98)
	(99,109)
	(109,99)
	(99,114)
	(114,99)
	(100,109)
	(109,100)
	(100,114)
	(114,100)
	(101,109)
	(109,101)
	(101,114)
	(114,101)
	(102,109)
	(109,102)
	(102,114)
	(114,102)
	(103,109)
	(109,103)
	(103,114)
	(114,103)
	(104,109)
	(109,104)
	(104,114)
	(114,104)
	(105,109)
	(109,105)
	(105,114)
	(114,105)
	(106,109)
	(109,106)
	(106,114)
	(114,106)
	(107,109)
	(109,107)
	(107,114)
	(114,107)
	(108,109)
	(109,108)
	(108,114)
	(114,108)
	(109,110)
	(110,109)
	(109,111)
	(111,109)
	(109,112)
	(112,109)
	(109,113)
	(113,109)
	(109,114)
	(114,109)
	(110,111)
	(111,110)
	(110,112)
	(112,110)
	(110,113)
	(113,110)
	(110,114)
	(114,110)
	(111,112)
	(112,111)
	(111,113)
	(113,111)
	(111,114)
	(114,111)
	(112,113)
	(113,112)
	(112,114)
	(114,112)
	(113,114)
	(114,113);
end;
